SDVRP instances/p02/p02_110_tsplib0_splitx10_0.vrp
NAME:.\SDVRP_splitx10_
BEST_KNOWN: 0
COMMENT: 0
DIMENSION: 248
CAPACITY: 1400
EDGE_WEIGHT_FORMAT: FUNCTION
EDGE_WEIGHT_TYPE: EXACT_2D
NODE_COORD_SECTION
1 0.00000 0.00000
2 -18 -18
3 -18 -18
4 -18 -18
5 -18 -18
6 -18 -18
7 -4 -14
8 -4 -14
9 -4 -14
10 -4 -14
11 -4 -14
12 -19 5
13 -19 5
14 -19 5
15 5 -5
16 5 -5
17 15 -20
18 15 -20
19 15 -20
20 15 -20
21 15 -20
22 -7 -6
23 -7 -6
24 -7 -6
25 -7 -6
26 -7 -6
27 10 10
28 15 5
29 15 5
30 -14 19
31 -14 19
32 -14 19
33 0 26
34 15 25
35 15 25
36 15 25
37 15 25
38 -5 11
39 -5 11
40 -5 11
41 -5 11
42 -5 11
43 22 -5
44 22 17
45 22 -16
46 22 -16
47 22 -16
48 22 -16
49 -19 -4
50 -19 -4
51 -19 -4
52 -7 4
53 -7 4
54 -31 16
55 22 8
56 22 8
57 22 8
58 22 8
59 22 8
60 26 -26
61 26 -26
62 4 -27
63 4 -27
64 -14 -27
65 -14 -27
66 -14 -27
67 -29 -12
68 -29 -12
69 -29 -12
70 -33 3
71 -33 3
72 -23 24
73 -23 24
74 -23 24
75 -23 24
76 1 6
77 1 6
78 1 6
79 1 6
80 15 -6
81 -5 -24
82 -5 -24
83 -5 -24
84 -5 -24
85 12 -14
86 12 -14
87 3 -14
88 3 -14
89 -9 36
90 -9 36
91 -9 36
92 -9 36
93 -9 36
94 -18 13
95 -18 13
96 -18 13
97 -18 13
98 -14 -11
99 -14 -11
100 -14 -11
101 -14 -11
102 10 0
103 10 0
104 10 0
105 15 10
106 15 10
107 15 10
108 15 10
109 15 10
110 14 -30
111 20 -25
112 20 -25
113 20 -25
114 20 -25
115 7 26
116 -10 20
117 -10 10
118 -10 10
119 -10 10
120 -10 10
121 -28 -23
122 -28 -23
123 -28 -23
124 -25 -26
125 -24 -21
126 -24 -21
127 -24 -21
128 -19 8
129 -19 8
130 -19 8
131 10 -10
132 10 -10
133 10 -10
134 10 -10
135 10 -10
136 11 2
137 11 2
138 11 2
139 10 -25
140 8 -19
141 8 -19
142 8 -19
143 8 -19
144 8 -19
145 -28 -2
146 -28 -2
147 -28 -2
148 -28 -2
149 -25 16
150 -25 16
151 -25 16
152 -11 -1
153 -11 -1
154 -11 -1
155 14 -2
156 14 -2
157 14 -2
158 15 17
159 27 1
160 27 1
161 27 1
162 27 1
163 27 1
164 -30 30
165 -30 30
166 -30 30
167 -30 30
168 -34 -15
169 -34 -15
170 -34 -15
171 -34 -15
172 25 -13
173 25 -13
174 25 -13
175 25 -13
176 0 20
177 0 20
178 0 20
179 0 20
180 30 24
181 30 24
182 30 24
183 30 24
184 30 24
185 24 -36
186 24 -36
187 24 -36
188 24 -36
189 -4 -34
190 -4 -34
191 -4 -34
192 -4 -34
193 -4 -34
194 -10 -20
195 -10 -20
196 -10 -20
197 -20 -10
198 -20 -10
199 -20 -10
200 -20 -10
201 -25 -35
202 -25 -35
203 -25 -35
204 10 30
205 10 30
206 10 30
207 10 30
208 17 32
209 5 2
210 5 2
211 5 2
212 5 2
213 5 2
214 -2 -7
215 -2 -7
216 10 -36
217 10 -36
218 10 -36
219 10 -36
220 10 -36
221 10 -36
222 26 -32
223 26 -32
224 26 -32
225 26 -32
226 26 -32
227 19 -35
228 19 -35
229 19 -35
230 19 -35
231 19 -35
232 19 -35
233 -5 20
234 -5 20
235 -5 20
236 -5 20
237 -5 20
238 -13 -16
239 -13 -16
240 -13 -16
241 -13 -16
242 0 -20
243 0 -20
244 0 -20
245 0 -20
246 0 -20
247 0 -20
248 0 -3
DEMAND_SECTION
1 0
2 70
3 14
4 14
5 14
6 8
7 14
8 14
9 14
10 14
11 4
12 14
13 14
14 2
15 70
16 10
17 70
18 14
19 14
20 14
21 8
22 70
23 14
24 14
25 14
26 8
27 70
28 14
29 6
30 14
31 14
32 2
33 10
34 70
35 14
36 14
37 12
38 14
39 14
40 14
41 14
42 4
43 70
44 70
45 70
46 14
47 14
48 2
49 14
50 14
51 12
52 14
53 6
54 70
55 70
56 14
57 14
58 14
59 8
60 70
61 10
62 14
63 6
64 70
65 14
66 6
67 70
68 14
69 6
70 70
71 10
72 70
73 14
74 14
75 12
76 70
77 14
78 14
79 2
80 10
81 70
82 14
83 14
84 12
85 14
86 6
87 14
88 6
89 70
90 14
91 14
92 14
93 8
94 70
95 14
96 14
97 12
98 70
99 14
100 14
101 12
102 14
103 14
104 2
105 70
106 14
107 14
108 14
109 8
110 70
111 70
112 14
113 14
114 12
115 70
116 70
117 70
118 14
119 14
120 12
121 14
122 14
123 2
124 10
125 70
126 14
127 6
128 70
129 14
130 6
131 70
132 14
133 14
134 14
135 8
136 14
137 14
138 12
139 70
140 14
141 14
142 14
143 14
144 4
145 70
146 14
147 14
148 12
149 70
150 14
151 6
152 70
153 14
154 6
155 70
156 14
157 6
158 10
159 70
160 14
161 14
162 14
163 8
164 70
165 14
166 14
167 2
168 70
169 14
170 14
171 2
172 14
173 14
174 14
175 8
176 70
177 14
178 14
179 2
180 14
181 14
182 14
183 14
184 4
185 14
186 14
187 14
188 8
189 70
190 14
191 14
192 14
193 8
194 14
195 14
196 12
197 14
198 14
199 14
200 8
201 14
202 14
203 12
204 14
205 14
206 14
207 8
208 70
209 70
210 14
211 14
212 14
213 8
214 14
215 6
216 70
217 14
218 14
219 14
220 14
221 4
222 70
223 14
224 14
225 14
226 8
227 70
228 14
229 14
230 14
231 14
232 4
233 70
234 14
235 14
236 14
237 8
238 70
239 14
240 14
241 12
242 70
243 14
244 14
245 14
246 14
247 4
248 10
DEPOT_SECTION
1
-1
EOF