SDVRP instances/p02/p02_110_tsplib0_splitx10_0.sol
247 -14 15 133 134 132 131 130 84 85 17 19 16 20 18 46 44 47 45 174 171 173 172 113 111 112 110 59 60 221 223 225 224 222 185 186 187 184 226 227 231 229 230 228 218 220 216 215 217 219 109 138 141 139 143 140 142 87 86 247 -21 23 24 22 25 99 98 97 100 239 238 240 237 4 3 1 2 5 124 126 125 120 121 122 123 200 202 201 65 63 64 194 195 193 80 83 81 82 192 189 191 190 188 62 61 242 246 244 241 243 245 6 8 9 10 7 214 213 -51 52 11 12 13 128 127 129 94 93 96 95 29 31 30 115 92 89 88 90 91 165 166 163 164 73 72 74 71 148 150 149 53 70 69 145 147 144 146 168 167 169 170 68 67 66 198 199 196 197 50 49 48 153 152 151 -78 75 77 76 26 106 108 104 107 105 157 43 182 179 181 180 183 34 36 35 33 207 205 206 204 203 114 32 178 176 177 175 235 236 233 234 232 40 38 39 37 41 119 117 116 118 -103 102 101 156 155 154 79 42 159 161 158 162 160 55 57 56 58 54 27 28 137 135 136 212 208 211 209 210 0 





OBJ=
622.673
BEST_KNOWN=
0.000